(set-option :print-success false)
(set-logic QF_UF)
(declare-sort x65 0)
(declare-sort x93 0)
(declare-fun x111 () x93)
(declare-fun x128 () x93)
(declare-fun x52 () x93)
(declare-fun x64 () x93)
(declare-fun x8 (x93 x93) x93)
(declare-fun x147 (x93 x93) x93)
(declare-fun x121 () x93)
(assert (let ((x127 (x147 x64 x111)) (x142 (x147 x111 x64)) (x57 (x147 x111 x52)) (x24 (x147 x111 x111)) (x2 (x147 x128 x52)) (x86 (x147 x128 x111)) (x144 (x147 x121 x121)) (x23 (x147 x121 x128)) (x14 (x147 x128 x64)) (x13 (x147 x64 x121)) (x60 (x147 x128 x128)) (x9 (x147 x64 x52)) (x62 (x147 x128 x121)) (x102 (x147 x52 x128)) (x81 (x147 x52 x52)) (x154 (x147 x52 x111)) (x135 (x147 x52 x121)) (x77 (x147 x111 x121)) (x107 (x147 x121 x111)) (x90 (x147 x64 x128)) (x58 (x147 x111 x128)) (x46 (x147 x52 x64)) (x44 (x147 x64 x64)) (x20 (x147 x121 x52)) (x48 (x147 x121 x64))) (let ((x152 (= x52 x44)) (x71 (= x111 x20)) (x94 (= x52 x144)) (x80 (= x111 x14)) (x158 (= x14 x128)) (x54 (= x58 x111)) (x49 (= x127 x121)) (x156 (= x128 x13)) (x130 (= x23 x121)) (x73 (= x46 x128)) (x78 (= x127 x52)) (x72 (= x64 x24)) (x146 (= x128 x154)) (x41 (= x107 x121)) (x75 (= x102 x64)) (x137 (= x52 x13)) (x35 (= x52 x20)) (x117 (= x52 x77)) (x116 (= x111 x81)) (x32 (= x121 x154)) (x159 (= x64 x81)) (x11 (= x64 x144)) (x138 (= x111 x9)) (x131 (= x52 x107)) (x29 (= x13 x64)) (x143 (= x20 x64)) (x153 (= x64 x57)) (x36 (= x64 x127)) (x98 (= x9 x121)) (x120 (= x44 x64)) (x123 (= x2 x128)) (x104 (= x107 x128)) (x103 (= x121 x44)) (x115 (= x9 x52)) (x140 (= x46 x52)) (x26 (= x86 x52)) (x68 (= x48 x111)) (x37 (= x128 x135)) (x55 (= x62 x128)) (x40 (= x64 x77)) (x42 (= x20 x128)) (x50 (= x154 x64)) (x63 (= x128 x60)) (x145 (= x142 x64)) (x21 (= x154 x111)) (x151 (= x86 x64)) (x110 (= x128 x24)) (x30 (= x128 x23)) (x4 (= x52 x48)) (x88 (= x142 x111)) (x91 (= x13 x111)) (x19 (= x64 x107)) (x79 (= x121 x62)) (x118 (= x144 x111)) (x15 (= x121 x135)) (x45 (= x81 x121)) (x92 (= x52 x81)) (x141 (= x90 x128)) (x25 (= x52 x2)) (x59 (= x20 x121)) (x150 (= x44 x128)) (x17 (= x77 x128)) (x149 (= x13 x121)) (x155 (= x58 x64)) (x129 (= x48 x128)) (x18 (= x14 x121)) (x112 (= x128 x81)) (x83 (= x46 x121)) (x6 (= x60 x121)) (x132 (= x127 x111)) (x31 (= x62 x111)) (x100 (= x52 x24)) (x47 (= x52 x60)) (x87 (= x2 x121)) (x22 (= x128 x58)) (x95 (= x102 x52)) (x97 (= x121 x142)) (x74 (= x57 x128)) (x109 (= x64 x14)) (x89 (= x128 x9)) (x133 (= x46 x64)) (x12 (= x52 x135)) (x101 (= x121 x90)) (x126 (= x121 x102)) (x157 (= x142 x52)) (x67 (= x135 x111)) (x1 (= x111 x60)) (x66 (= x128 x142)) (x106 (= x111 x102)) (x69 (= x57 x121)) (x51 (= x111 x107)) (x134 (= x52 x58)) (x124 (= x64 x48)) (x56 (= x121 x86)) (x136 (= x23 x64)) (x148 (= x144 x128)) (x33 (= x86 x111)) (x38 (= x62 x64)) (x34 (= x23 x52)) (x10 (= x64 x60)) (x16 (= x127 x128)) (x99 (= x62 x52)) (x105 (= x111 x90)) (x53 (= x128 x86)) (x114 (= x144 x121)) (x82 (= x111 x46)) (x27 (= x64 x135)) (x139 (= x2 x64)) (x5 (= x57 x52)) (x125 (= x111 x24)) (x85 (= x111 x57)) (x96 (= x24 x121)) (x43 (= x52 x90)) (x113 (= x121 x58)) (x108 (= x121 x77)) (x70 (= x52 x154)) (x7 (= x64 x90)) (x119 (= x48 x121)) (x61 (= x44 x111)) (x122 (= x111 x77)) (x39 (= x23 x111)) (x28 (= x128 x102)) (x76 (= x2 x111)) (x3 (= x9 x64)) (x84 (= x14 x52))) (and (and (and (and (and (and (and (or (or (or x34 (or x43 x47)) x95) x134) (or (or (or x99 (or x84 x47)) x25) x26)) (and (and (or (or x87 (or (or x18 x6) x79)) x56) (or (or x126 (or (or x6 x101) x130)) x113)) (and (and (or x151 (or x139 (or (or x10 x109) x38))) (or (or (or (or x10 x7) x136) x75) x155)) (and (or (or x28 (or x30 (or x141 x63))) x22) (or (or x123 (or (or x158 x63) x55)) x53))))) (and (or (or (or x31 (or x1 x80)) x76) x33) (or (or x106 (or (or x105 x1) x39)) x54))) (and (and (or (or x138 (or x91 (or x61 x105))) x132) (or (or (or (or x80 x61) x68) x82) x88)) (and (and (and (or (or x83 (or (or x103 x18) x119)) x97) (or (or (or (or x103 x101) x149) x98) x49)) (and (and (or (or (or x129 (or x158 x150)) x73) x66) (or (or (or x156 (or x141 x150)) x89) x16)) (and (or x36 (or x3 (or x29 (or x120 x7)))) (or x145 (or (or x124 (or x120 x109)) x133))))) (and (or x78 (or x115 (or (or x43 x152) x137))) (or x157 (or (or (or x152 x84) x4) x140)))))) (and (and (or (or (or x118 (or x91 x31)) x67) x122) (or (or x71 (or (or x68 x39) x118)) x51)) (and (and (and (and (or (or x27 (or (or x38 x29) x11)) x40) (or (or (or x11 (or x136 x124)) x143) x19)) (and (or x17 (or (or (or x55 x156) x148) x37)) (or (or (or (or x129 x30) x148) x42) x104))) (and (or x41 (or (or (or x119 x130) x114) x59)) (or (or x15 (or (or x79 x149) x114)) x108))) (and (or (or (or (or x99 x137) x94) x12) x117) (or (or (or x94 (or x34 x4)) x35) x131))))) (and (and (or (or (or x67 (or x82 x106)) x116) x21) (or x85 (or x116 (or (or x76 x138) x71)))) (and (and (and (or x32 (or x45 (or x15 (or x83 x126)))) (or (or (or x59 (or x87 x98)) x45) x69)) (and (and (or x50 (or x159 (or (or x75 x133) x27))) (or (or x159 (or x143 (or x3 x139))) x153)) (and (or x146 (or x112 (or x37 (or x28 x73)))) (or x74 (or (or x42 (or x123 x89)) x112))))) (and (or (or (or x12 (or x140 x95)) x92) x70) (or x5 (or x92 (or x35 (or x25 x115)))))))) (and (and (or x125 (or (or (or x132 x33) x51) x21)) (or x125 (or x85 (or (or x54 x88) x122)))) (and (and (or (or (or (or x134 x157) x117) x5) x100) (or x100 (or x70 (or (or x26 x78) x131)))) (and (and (or x96 (or (or (or x49 x56) x41) x32)) (or (or (or (or x97 x113) x108) x69) x96)) (and (and (or x110 (or (or (or x53 x16) x104) x146)) (or x110 (or (or x17 (or x66 x22)) x74))) (and (or (or (or (or x36 x151) x19) x50) x72) (or (or x153 (or x40 (or x155 x145))) x72))))))))))
(assert (and (and (and (and (or (= x111 (x147 x64 (x147 x64 x111))) (or (= x52 (x147 x64 (x147 x64 x52))) (or (or (= x128 (x147 x64 (x147 x64 x128))) (= x64 (x147 x64 (x147 x64 x64)))) (= x121 (x147 x64 (x147 x64 x121)))))) (or (= (x147 x128 (x147 x128 x111)) x111) (or (= (x147 x128 (x147 x128 x52)) x52) (or (or (= (x147 x128 (x147 x128 x128)) x128) (= x64 (x147 x128 (x147 x128 x64)))) (= (x147 x128 (x147 x128 x121)) x121))))) (or (or (= x52 (x147 x121 (x147 x121 x52))) (or (or (= (x147 x121 (x147 x121 x128)) x128) (= (x147 x121 (x147 x121 x64)) x64)) (= (x147 x121 (x147 x121 x121)) x121))) (= x111 (x147 x121 (x147 x121 x111))))) (or (= x111 (x147 x52 (x147 x52 x111))) (or (= (x147 x52 (x147 x52 x52)) x52) (or (or (= x128 (x147 x52 (x147 x52 x128))) (= x64 (x147 x52 (x147 x52 x64)))) (= x121 (x147 x52 (x147 x52 x121))))))) (or (= x111 (x147 x111 (x147 x111 x111))) (or (= (x147 x111 (x147 x111 x52)) x52) (or (= (x147 x111 (x147 x111 x121)) x121) (or (= (x147 x111 (x147 x111 x64)) x64) (= x128 (x147 x111 (x147 x111 x128)))))))))
(assert (let ((x62 (x147 x52 x52)) (x2 (x147 x111 x111)) (x14 (x147 x121 x121)) (x60 (x147 x64 x64)) (x63 (x147 x128 x128))) (or (and (not (= x111 x2)) (and (not (= x62 x111)) (and (and (not (= x63 x111)) (not (= x111 x60))) (not (= x111 x14))))) (or (or (and (not (= x121 x2)) (and (and (and (not (= x121 x63)) (not (= x60 x121))) (not (= x121 x14))) (not (= x121 x62)))) (or (and (not (= x2 x64)) (and (and (not (= x14 x64)) (and (not (= x60 x64)) (not (= x64 x63)))) (not (= x62 x64)))) (and (and (and (not (= x128 x14)) (and (not (= x128 x63)) (not (= x60 x128)))) (not (= x62 x128))) (not (= x128 x2))))) (and (not (= x52 x2)) (and (not (= x62 x52)) (and (not (= x52 x14)) (and (not (= x63 x52)) (not (= x52 x60))))))))))
(assert (let ((x1 (x147 x52 x121)) (x63 (x147 x128 x128)) (x102 (x147 x111 x64)) (x23 (x147 x52 x64)) (x7 (x147 x121 x52)) (x109 (x147 x121 x111)) (x2 (x147 x111 x128)) (x86 (x147 x128 x64)) (x48 (x147 x111 x111)) (x60 (x147 x64 x128)) (x141 (x147 x111 x121)) (x158 (x147 x128 x52)) (x90 (x147 x121 x64)) (x62 (x147 x52 x128)) (x58 (x147 x128 x121)) (x10 (x147 x64 x64)) (x127 (x147 x64 x111)) (x47 (x147 x121 x121)) (x9 (x147 x128 x111)) (x120 (x147 x52 x111)) (x150 (x147 x64 x52)) (x13 (x147 x111 x52)) (x6 (x147 x64 x121)) (x14 (x147 x121 x128)) (x44 (x147 x52 x52))) (or (or (and (not (= (x147 x13 x13) x111)) (and (not (= (x147 x44 x44) x52)) (and (and (not (= (x147 x150 x150) x64)) (not (= x128 (x147 x158 x158)))) (not (= x121 (x147 x7 x7)))))) (or (and (and (not (= x52 (x147 x1 x1))) (and (not (= (x147 x47 x47) x121)) (and (not (= (x147 x58 x58) x128)) (not (= (x147 x6 x6) x64))))) (not (= x111 (x147 x141 x141)))) (or (and (and (not (= (x147 x23 x23) x52)) (and (not (= (x147 x90 x90) x121)) (and (not (= (x147 x10 x10) x64)) (not (= (x147 x86 x86) x128))))) (not (= x111 (x147 x102 x102)))) (and (not (= (x147 x2 x2) x111)) (and (not (= x52 (x147 x62 x62))) (and (and (not (= (x147 x63 x63) x128)) (not (= x64 (x147 x60 x60)))) (not (= (x147 x14 x14) x121)))))))) (and (not (= (x147 x48 x48) x111)) (and (and (and (not (= x128 (x147 x9 x9))) (not (= (x147 x127 x127) x64))) (not (= (x147 x109 x109) x121))) (not (= (x147 x120 x120) x52)))))))
(assert (and (and (and (not (= x121 x52)) (and (and (not (= x64 x52)) (and (not (= x121 x64)) (and (not (= x128 x111)) (and (and (not (= x64 x128)) (not (= x128 x121))) (not (= x52 x128)))))) (not (= x64 x111)))) (not (= x111 x121))) (not (= x52 x111))))
(assert (let ((x129 (x147 x64 x64)) (x124 (x147 x52 x64)) (x119 (x147 x52 x121)) (x101 (x147 x128 x64)) (x46 (x147 x128 x128)) (x91 (x147 x111 x52)) (x43 (x147 x121 x128)) (x136 (x147 x64 x52)) (x130 (x147 x121 x52)) (x80 (x147 x111 x128)) (x79 (x147 x121 x111)) (x144 (x147 x64 x111)) (x149 (x147 x111 x121)) (x135 (x147 x121 x121)) (x75 (x147 x111 x111)) (x31 (x147 x52 x111)) (x103 (x147 x128 x121)) (x156 (x147 x64 x121)) (x39 (x147 x52 x52)) (x148 (x147 x121 x64)) (x84 (x147 x128 x52)) (x18 (x147 x64 x128)) (x20 (x147 x111 x64)) (x105 (x147 x128 x111)) (x152 (x147 x52 x128))) (let ((x2 (not (= x128 x43))) (x47 (not (= x128 x136))) (x54 (not (= x80 x111))) (x11 (not (= x64 x156))) (x61 (not (= x18 x64))) (x35 (not (= x121 x149))) (x60 (not (= x18 x128))) (x109 (not (= x128 x91))) (x1 (not (= x119 x128))) (x104 (not (= x84 x52))) (x55 (not (= x129 x64))) (x67 (not (= x121 x75))) (x19 (not (= x149 x52))) (x28 (not (= x64 x105))) (x9 (not (= x149 x128))) (x94 (not (= x130 x64))) (x114 (not (= x64 x152))) (x127 (not (= x79 x128))) (x57 (not (= x156 x121))) (x142 (not (= x64 x46))) (x12 (not (= x121 x105))) (x59 (not (= x121 x119))) (x66 (not (= x103 x52))) (x116 (not (= x129 x52))) (x51 (not (= x91 x111))) (x6 (not (= x124 x128))) (x68 (not (= x64 x39))) (x3 (not (= x43 x121))) (x126 (not (= x135 x121))) (x155 (not (= x119 x52))) (x108 (not (= x46 x111))) (x90 (not (= x156 x128))) (x63 (not (= x46 x128))) (x150 (not (= x128 x80))) (x87 (not (= x124 x121))) (x115 (not (= x121 x144))) (x92 (not (= x121 x79))) (x137 (not (= x64 x119))) (x27 (not (= x46 x121))) (x49 (not (= x129 x111))) (x81 (not (= x18 x121))) (x76 (not (= x46 x52))) (x58 (not (= x128 x84))) (x15 (not (= x84 x121))) (x151 (not (= x52 x20))) (x117 (not (= x152 x111))) (x23 (not (= x135 x128))) (x36 (not (= x52 x144))) (x73 (not (= x20 x64))) (x133 (not (= x75 x64))) (x154 (not (= x121 x101))) (x113 (not (= x31 x52))) (x88 (not (= x105 x111))) (x74 (not (= x156 x52))) (x48 (not (= x128 x75))) (x82 (not (= x31 x121))) (x32 (not (= x103 x111))) (x95 (not (= x121 x39))) (x4 (not (= x124 x64))) (x159 (not (= x121 x148))) (x118 (not (= x64 x80))) (x99 (not (= x64 x136))) (x17 (not (= x52 x148))) (x69 (not (= x111 x18))) (x140 (not (= x121 x80))) (x29 (not (= x148 x64))) (x44 (not (= x128 x20))) (x5 (not (= x84 x111))) (x158 (not (= x128 x39))) (x139 (not (= x121 x129))) (x85 (not (= x111 x144))) (x53 (not (= x52 x135))) (x134 (not (= x111 x156))) (x96 (not (= x148 x111))) (x26 (not (= x124 x111))) (x125 (not (= x111 x75))) (x56 (not (= x111 x101))) (x97 (not (= x52 x75))) (x86 (not (= x103 x128))) (x72 (not (= x52 x91))) (x16 (not (= x152 x52))) (x145 (not (= x52 x130))) (x122 (not (= x20 x111))) (x106 (not (= x91 x121))) (x41 (not (= x111 x43))) (x153 (not (= x80 x52))) (x89 (not (= x64 x79))) (x110 (not (= x136 x52))) (x132 (not (= x79 x111))) (x77 (not (= x64 x135))) (x71 (not (= x52 x101))) (x37 (not (= x64 x144))) (x7 (not (= x128 x105))) (x143 (not (= x103 x121))) (x25 (not (= x121 x20))) (x38 (not (= x103 x64))) (x34 (not (= x84 x64))) (x40 (not (= x39 x52))) (x33 (not (= x111 x149))) (x141 (not (= x130 x128))) (x42 (not (= x91 x64))) (x45 (not (= x121 x130))) (x107 (not (= x43 x64))) (x83 (not (= x121 x152))) (x131 (not (= x119 x111))) (x24 (not (= x105 x52))) (x102 (not (= x128 x152))) (x120 (not (= x128 x31))) (x146 (not (= x52 x124))) (x157 (not (= x111 x135))) (x123 (not (= x64 x149))) (x78 (not (= x136 x111))) (x13 (not (= x128 x144))) (x30 (not (= x64 x101))) (x98 (not (= x136 x121))) (x14 (not (= x128 x101))) (x50 (not (= x79 x52))) (x112 (not (= x64 x31))) (x10 (not (= x128 x148))) (x62 (not (= x128 x129))) (x100 (not (= x111 x39))) (x21 (not (= x31 x111))) (x22 (not (= x52 x43))) (x70 (not (= x130 x111))) (x138 (not (= x52 x18)))) (or (and (and (and (or x51 x21) (and (or x33 x132) (and (or x54 x88) (or x85 x122)))) (or x125 x125)) (and (and (and (and (or x70 x131) (and (and (or x41 x32) (or x96 x134)) (or x157 x157))) (or x33 x132)) (and (and (or x54 x88) (and (and (and (or x108 x108) (or x56 x69)) (or x41 x32)) (or x117 x5))) (and (or x85 x122) (and (or x78 x26) (and (and (or x69 x56) (or x49 x49)) (or x134 x96)))))) (and (or x51 x21) (and (or x100 x100) (and (and (or x78 x26) (or x5 x117)) (or x131 x70)))))) (or (or (or (and (and (and (or x120 x109) (and (and (or x1 x141) (and (or x6 x47) (or x58 x102))) (or x158 x158))) (and (and (and (or x7 x150) (and (and (and (or x63 x63) (or x60 x14)) (or x2 x86)) (or x102 x58))) (and (and (and (or x10 x90) (and (or x62 x62) (or x14 x60))) (or x47 x6)) (or x44 x13))) (and (and (or x1 x141) (and (and (or x10 x90) (or x2 x86)) (or x23 x23))) (or x127 x9)))) (and (or x48 x48) (and (and (or x127 x9) (and (or x150 x7) (or x44 x13))) (or x120 x109)))) (and (and (and (and (and (and (or x114 x34) (and (and (or x142 x142) (or x61 x30)) (or x38 x107))) (or x28 x118)) (and (and (and (and (or x55 x55) (or x30 x61)) (or x29 x11)) (or x99 x4)) (or x73 x37))) (and (or x123 x89) (and (and (or x77 x77) (and (or x107 x38) (or x29 x11))) (or x137 x94)))) (and (or x112 x42) (and (and (or x137 x94) (and (or x99 x4) (or x114 x34))) (or x68 x68)))) (and (or x133 x133) (and (and (or x123 x89) (and (or x73 x37) (or x118 x28))) (or x112 x42))))) (and (and (and (or x106 x82) (and (or x92 x35) (and (or x12 x140) (or x25 x115)))) (or x67 x67)) (and (and (and (or x92 x35) (and (and (and (or x57 x159) (or x3 x143)) (or x126 x126)) (or x45 x59))) (and (and (or x140 x12) (and (and (or x143 x3) (and (or x81 x154) (or x27 x27))) (or x15 x83))) (and (or x115 x25) (and (or x98 x87) (and (and (or x139 x139) (or x81 x154)) (or x57 x159)))))) (and (or x106 x82) (and (and (and (or x15 x83) (or x98 x87)) (or x59 x45)) (or x95 x95)))))) (and (and (and (or x72 x113) (and (or x40 x40) (and (or x145 x155) (and (or x110 x146) (or x104 x16))))) (and (and (and (and (or x146 x110) (and (and (or x138 x71) (or x116 x116)) (or x74 x17))) (or x36 x151)) (and (and (or x16 x104) (and (and (or x71 x138) (or x76 x76)) (or x22 x66))) (or x153 x24))) (and (or x19 x50) (and (or x155 x145) (and (or x53 x53) (and (or x66 x22) (or x17 x74))))))) (and (and (and (or x50 x19) (and (or x36 x151) (or x24 x153))) (or x113 x72)) (or x97 x97))))))))
(assert (let ((x6 (x147 x121 x64)) (x7 (x147 x52 x121)) (x90 (x147 x64 x121)) (x150 (x147 x52 x64)) (x13 (x147 x52 x111)) (x2 (x147 x128 x111)) (x102 (x147 x64 x111)) (x47 (x147 x121 x121)) (x9 (x147 x111 x128)) (x58 (x147 x121 x128)) (x62 (x147 x128 x52)) (x1 (x147 x121 x52)) (x44 (x147 x52 x52)) (x127 (x147 x111 x64)) (x158 (x147 x52 x128)) (x120 (x147 x111 x52)) (x141 (x147 x121 x111)) (x63 (x147 x128 x128)) (x86 (x147 x64 x128)) (x23 (x147 x64 x52)) (x109 (x147 x111 x121)) (x14 (x147 x128 x121)) (x10 (x147 x64 x64)) (x60 (x147 x128 x64)) (x48 (x147 x111 x111))) (and (and (and (and (and (and (and (and (or (or (or (= x63 x121) (or (= x63 x64) (= x63 x128))) (= x52 x63)) (= x63 x111)) (or (= x60 x111) (or (= x52 x60) (or (= x60 x121) (or (= x60 x128) (= x64 x60)))))) (or (or (or (= x14 x121) (or (= x14 x64) (= x128 x14))) (= x52 x14)) (= x111 x14))) (or (or (or (= x121 x62) (or (= x62 x128) (= x62 x64))) (= x62 x52)) (= x62 x111))) (or (= x2 x111) (or (or (= x121 x2) (or (= x64 x2) (= x128 x2))) (= x2 x52)))) (and (or (= x102 x111) (or (= x52 x102) (or (or (= x102 x64) (= x102 x128)) (= x121 x102)))) (and (and (or (or (= x52 x90) (or (= x121 x90) (or (= x90 x64) (= x128 x90)))) (= x111 x90)) (and (or (= x111 x10) (or (= x52 x10) (or (= x121 x10) (or (= x10 x128) (= x10 x64))))) (or (= x86 x111) (or (= x86 x52) (or (= x86 x121) (or (= x86 x128) (= x64 x86))))))) (or (or (= x52 x23) (or (= x121 x23) (or (= x64 x23) (= x128 x23)))) (= x23 x111))))) (and (or (or (or (= x121 x141) (or (= x128 x141) (= x141 x64))) (= x141 x52)) (= x111 x141)) (and (or (= x1 x111) (or (= x52 x1) (or (= x1 x121) (or (= x64 x1) (= x128 x1))))) (and (or (or (= x52 x47) (or (or (= x47 x64) (= x128 x47)) (= x47 x121))) (= x47 x111)) (and (or (or (or (or (= x6 x64) (= x6 x128)) (= x121 x6)) (= x6 x52)) (= x111 x6)) (or (= x111 x58) (or (or (= x58 x121) (or (= x64 x58) (= x58 x128))) (= x52 x58)))))))) (and (and (and (and (or (or (= x52 x150) (or (= x121 x150) (or (= x150 x128) (= x64 x150)))) (= x150 x111)) (or (or (= x52 x158) (or (= x158 x121) (or (= x158 x128) (= x158 x64)))) (= x111 x158))) (or (= x7 x111) (or (= x7 x52) (or (or (= x7 x64) (= x128 x7)) (= x121 x7))))) (or (= x44 x111) (or (or (or (= x44 x64) (= x44 x128)) (= x121 x44)) (= x44 x52)))) (or (= x13 x111) (or (or (= x121 x13) (or (= x13 x128) (= x64 x13))) (= x52 x13))))) (and (and (and (or (or (or (= x121 x109) (or (= x64 x109) (= x128 x109))) (= x52 x109)) (= x111 x109)) (and (or (or (= x52 x9) (or (= x9 x121) (or (= x9 x128) (= x9 x64)))) (= x111 x9)) (or (or (= x52 x127) (or (or (= x127 x128) (= x64 x127)) (= x121 x127))) (= x111 x127)))) (or (= x120 x111) (or (= x52 x120) (or (= x120 x121) (or (= x64 x120) (= x128 x120)))))) (or (= x48 x111) (or (or (or (= x64 x48) (= x48 x128)) (= x48 x121)) (= x52 x48)))))))
(assert (and (or (or (= (x147 x52 (x147 x111 x52)) x111) (or (or (= (x147 x128 (x147 x111 x128)) x111) (= x111 (x147 x64 (x147 x111 x64)))) (= x111 (x147 x121 (x147 x111 x121))))) (= (x147 x111 (x147 x111 x111)) x111)) (and (and (and (or (or (= x64 (x147 x52 (x147 x64 x52))) (or (or (= x64 (x147 x64 (x147 x64 x64))) (= x64 (x147 x128 (x147 x64 x128)))) (= x64 (x147 x121 (x147 x64 x121))))) (= x64 (x147 x111 (x147 x64 x111)))) (or (or (= (x147 x52 (x147 x128 x52)) x128) (or (or (= (x147 x64 (x147 x128 x64)) x128) (= (x147 x128 (x147 x128 x128)) x128)) (= x128 (x147 x121 (x147 x128 x121))))) (= (x147 x111 (x147 x128 x111)) x128))) (or (or (= (x147 x52 (x147 x121 x52)) x121) (or (= x121 (x147 x121 (x147 x121 x121))) (or (= x121 (x147 x64 (x147 x121 x64))) (= (x147 x128 (x147 x121 x128)) x121)))) (= x121 (x147 x111 (x147 x121 x111))))) (or (= x52 (x147 x111 (x147 x52 x111))) (or (= x52 (x147 x52 (x147 x52 x52))) (or (= (x147 x121 (x147 x52 x121)) x52) (or (= (x147 x128 (x147 x52 x128)) x52) (= (x147 x64 (x147 x52 x64)) x52))))))))
(assert (let ((x127 (x147 x64 x111)) (x120 (x147 x52 x111)) (x13 (x147 x111 x52)) (x158 (x147 x128 x52)) (x7 (x147 x121 x52)) (x63 (x147 x128 x128)) (x102 (x147 x111 x64)) (x60 (x147 x64 x128)) (x23 (x147 x52 x64)) (x150 (x147 x64 x52)) (x48 (x147 x111 x111)) (x86 (x147 x128 x64)) (x14 (x147 x121 x128)) (x62 (x147 x52 x128)) (x58 (x147 x128 x121)) (x44 (x147 x52 x52)) (x2 (x147 x111 x128)) (x47 (x147 x121 x121)) (x90 (x147 x121 x64)) (x1 (x147 x52 x121)) (x10 (x147 x64 x64)) (x9 (x147 x128 x111)) (x141 (x147 x111 x121)) (x6 (x147 x64 x121)) (x109 (x147 x121 x111))) (and (and (and (and (and (and (and (and (and (not (= x10 x127)) (and (not (= x10 x150)) (and (not (= x6 x10)) (and (not (= x60 x127)) (and (and (not (= x60 x6)) (not (= x60 x10))) (not (= x60 x150))))))) (not (= x6 x150))) (not (= x6 x127))) (not (= x127 x150))) (and (and (not (= x58 x9)) (and (and (not (= x86 x9)) (and (not (= x86 x158)) (and (not (= x58 x86)) (and (not (= x63 x9)) (and (not (= x63 x158)) (and (not (= x58 x63)) (not (= x86 x63)))))))) (not (= x158 x58)))) (not (= x9 x158)))) (and (and (and (not (= x7 x47)) (and (and (and (not (= x90 x47)) (and (not (= x14 x109)) (and (not (= x7 x14)) (and (not (= x47 x14)) (not (= x90 x14)))))) (not (= x7 x90))) (not (= x90 x109)))) (not (= x109 x47))) (not (= x7 x109)))) (and (not (= x120 x44)) (and (and (not (= x1 x44)) (and (not (= x23 x120)) (and (not (= x44 x23)) (and (not (= x1 x23)) (and (not (= x120 x62)) (and (not (= x44 x62)) (and (not (= x62 x1)) (not (= x62 x23))))))))) (not (= x120 x1))))) (and (and (not (= x48 x141)) (and (not (= x141 x13)) (and (not (= x102 x48)) (and (not (= x13 x102)) (and (and (not (= x2 x48)) (and (not (= x2 x13)) (and (not (= x2 x141)) (not (= x2 x102))))) (not (= x102 x141))))))) (not (= x13 x48)))) (and (and (and (not (= x13 x44)) (and (and (and (and (and (not (= x150 x7)) (and (and (and (not (= x7 x158)) (not (= x158 x150))) (not (= x158 x44))) (not (= x158 x13)))) (not (= x44 x150))) (not (= x13 x150))) (not (= x7 x44))) (not (= x7 x13)))) (and (and (and (not (= x102 x23)) (and (not (= x90 x102)) (and (not (= x90 x23)) (and (and (not (= x23 x10)) (and (and (and (and (not (= x86 x10)) (not (= x86 x90))) (not (= x23 x86))) (not (= x86 x102))) (not (= x10 x90)))) (not (= x102 x10)))))) (and (and (not (= x14 x2)) (and (not (= x14 x62)) (and (not (= x2 x60)) (and (and (not (= x60 x14)) (and (not (= x2 x63)) (and (and (not (= x63 x60)) (not (= x63 x14))) (not (= x62 x63))))) (not (= x62 x60)))))) (not (= x62 x2)))) (and (and (not (= x47 x141)) (and (and (not (= x141 x6)) (and (not (= x6 x1)) (and (and (and (and (not (= x58 x6)) (not (= x47 x58))) (not (= x1 x58))) (not (= x58 x141))) (not (= x6 x47))))) (not (= x47 x1)))) (not (= x141 x1))))) (and (and (and (not (= x109 x120)) (and (not (= x48 x127)) (and (and (and (not (= x9 x48)) (and (and (not (= x9 x109)) (not (= x127 x9))) (not (= x9 x120)))) (not (= x109 x127))) (not (= x127 x120))))) (not (= x48 x109))) (not (= x48 x120)))))))
(assert (or (and (and (and (not (= (x147 x121 (x147 x111 x121)) x121)) (and (not (= x64 (x147 x64 (x147 x111 x64)))) (not (= (x147 x128 (x147 x111 x128)) x128)))) (not (= (x147 x52 (x147 x111 x52)) x52))) (not (= x111 (x147 x111 (x147 x111 x111))))) (or (and (and (not (= (x147 x52 (x147 x52 x52)) x52)) (and (and (not (= x128 (x147 x128 (x147 x52 x128)))) (not (= (x147 x64 (x147 x52 x64)) x64))) (not (= (x147 x121 (x147 x52 x121)) x121)))) (not (= (x147 x111 (x147 x52 x111)) x111))) (or (or (and (not (= (x147 x111 (x147 x128 x111)) x111)) (and (not (= (x147 x52 (x147 x128 x52)) x52)) (and (and (not (= (x147 x64 (x147 x128 x64)) x64)) (not (= x128 (x147 x128 (x147 x128 x128))))) (not (= x121 (x147 x121 (x147 x128 x121))))))) (and (and (and (and (not (= (x147 x64 (x147 x64 x64)) x64)) (not (= x128 (x147 x128 (x147 x64 x128))))) (not (= (x147 x121 (x147 x64 x121)) x121))) (not (= x52 (x147 x52 (x147 x64 x52))))) (not (= x111 (x147 x111 (x147 x64 x111)))))) (and (and (not (= (x147 x52 (x147 x121 x52)) x52)) (and (not (= (x147 x121 (x147 x121 x121)) x121)) (and (not (= x128 (x147 x128 (x147 x121 x128)))) (not (= (x147 x64 (x147 x121 x64)) x64))))) (not (= x111 (x147 x111 (x147 x121 x111)))))))))
(assert (or (and (not (= x111 (x147 x111 x111))) (and (not (= (x147 x111 x52) x52)) (and (and (not (= (x147 x111 x64) x64)) (not (= (x147 x111 x128) x128))) (not (= x121 (x147 x111 x121)))))) (or (and (not (= x111 (x147 x52 x111))) (and (and (not (= (x147 x52 x121) x121)) (and (not (= (x147 x52 x64) x64)) (not (= (x147 x52 x128) x128)))) (not (= (x147 x52 x52) x52)))) (or (and (not (= (x147 x121 x111) x111)) (and (not (= (x147 x121 x52) x52)) (and (not (= (x147 x121 x121) x121)) (and (not (= (x147 x121 x64) x64)) (not (= (x147 x121 x128) x128)))))) (or (and (not (= (x147 x64 x111) x111)) (and (not (= x52 (x147 x64 x52))) (and (and (not (= x64 (x147 x64 x64))) (not (= x128 (x147 x64 x128)))) (not (= x121 (x147 x64 x121)))))) (and (not (= x111 (x147 x128 x111))) (and (not (= (x147 x128 x52) x52)) (and (and (not (= (x147 x128 x128) x128)) (not (= x64 (x147 x128 x64)))) (not (= (x147 x128 x121) x121))))))))))
(assert (or (= (x147 x111 x111) x111) (or (= (x147 x52 x52) x52) (or (= (x147 x121 x121) x121) (or (= x64 (x147 x64 x64)) (= (x147 x128 x128) x128))))))
(assert (or (and (and (and (not (= (x147 (x147 x121 x111) x111) x121)) (and (not (= x128 (x147 (x147 x128 x111) x111))) (not (= x64 (x147 (x147 x64 x111) x111))))) (not (= (x147 (x147 x52 x111) x111) x52))) (not (= (x147 (x147 x111 x111) x111) x111))) (or (or (or (and (not (= x111 (x147 (x147 x111 x128) x128))) (and (and (and (not (= x128 (x147 (x147 x128 x128) x128))) (not (= (x147 (x147 x64 x128) x128) x64))) (not (= (x147 (x147 x121 x128) x128) x121))) (not (= (x147 (x147 x52 x128) x128) x52)))) (and (not (= x111 (x147 (x147 x111 x64) x64))) (and (not (= x52 (x147 (x147 x52 x64) x64))) (and (and (not (= (x147 (x147 x128 x64) x64) x128)) (not (= x64 (x147 (x147 x64 x64) x64)))) (not (= x121 (x147 (x147 x121 x64) x64))))))) (and (not (= (x147 (x147 x111 x121) x121) x111)) (and (not (= x52 (x147 (x147 x52 x121) x121))) (and (not (= x121 (x147 (x147 x121 x121) x121))) (and (not (= x128 (x147 (x147 x128 x121) x121))) (not (= x64 (x147 (x147 x64 x121) x121)))))))) (and (and (not (= x52 (x147 (x147 x52 x52) x52))) (and (and (not (= x64 (x147 (x147 x64 x52) x52))) (not (= (x147 (x147 x128 x52) x52) x128))) (not (= x121 (x147 (x147 x121 x52) x52))))) (not (= (x147 (x147 x111 x52) x52) x111))))))
(assert (and (or (or (or (or (= (x147 (x147 x111 x64) x111) x64) (= x128 (x147 (x147 x111 x128) x111))) (= (x147 (x147 x111 x121) x111) x121)) (= x52 (x147 (x147 x111 x52) x111))) (= (x147 (x147 x111 x111) x111) x111)) (and (or (= (x147 (x147 x52 x111) x52) x111) (or (or (= (x147 (x147 x52 x121) x52) x121) (or (= x64 (x147 (x147 x52 x64) x52)) (= x128 (x147 (x147 x52 x128) x52)))) (= x52 (x147 (x147 x52 x52) x52)))) (and (and (or (= x111 (x147 (x147 x64 x111) x64)) (or (= x52 (x147 (x147 x64 x52) x64)) (or (= x121 (x147 (x147 x64 x121) x64)) (or (= x128 (x147 (x147 x64 x128) x64)) (= x64 (x147 (x147 x64 x64) x64)))))) (or (or (= (x147 (x147 x128 x52) x128) x52) (or (= x121 (x147 (x147 x128 x121) x128)) (or (= x64 (x147 (x147 x128 x64) x128)) (= (x147 (x147 x128 x128) x128) x128)))) (= (x147 (x147 x128 x111) x128) x111))) (or (or (or (= x121 (x147 (x147 x121 x121) x121)) (or (= (x147 (x147 x121 x64) x121) x64) (= (x147 (x147 x121 x128) x121) x128))) (= (x147 (x147 x121 x52) x121) x52)) (= (x147 (x147 x121 x111) x121) x111))))))
(assert (not (and (and (and (and (and (= x111 (x147 x111 x128)) (and (and (= (x147 x52 x52) x128) (and (= (x147 x52 x121) x52) (and (and (= (x147 x52 x128) x121) (and (= (x147 x121 x111) x52) (and (and (= x64 (x147 x121 x121)) (and (= x121 (x147 x121 x64)) (and (= (x147 x121 x128) x128) (and (= x111 (x147 x64 x111)) (and (and (= x128 (x147 x64 x121)) (and (and (= x52 (x147 x64 x128)) (and (= x121 (x147 x128 x111)) (and (= x52 (x147 x128 x52)) (and (= (x147 x128 x121) x111) (and (= x128 (x147 x128 x64)) (= (x147 x128 x128) x64)))))) (= (x147 x64 x64) x64))) (= (x147 x64 x52) x121)))))) (= (x147 x121 x52) x111)))) (= (x147 x52 x64) x111)))) (= (x147 x52 x111) x64))) (= (x147 x111 x64) x52)) (= (x147 x111 x121) x121)) (= x64 (x147 x111 x52))) (= x128 (x147 x111 x111)))))
(assert (and (= x52 (x147 x111 x64)) (and (= (x147 x128 x111) x121) (and (= x128 (x147 x111 x111)) (= (x147 x121 x121) x64)))))
(check-sat)
(exit)
